NAME : 50_4_01.58224.tour
COMMENT : Cost = 0_58224
COMMENT : Found by LKH [Keld Helsgaun] Thu Sep 14 11:08:19 2017
TYPE : TOUR
DIMENSION : 54
TOUR_SECTION
1
8
52
3
49
46
30
48
44
47
50
19
17
18
12
14
11
10
13
36
38
34
37
35
53
51
6
9
7
42
40
43
39
41
31
22
26
21
29
24
23
27
25
54
4
5
33
32
2
45
16
15
20
28
-1
EOF
